c turning on binary mode checking
c parsing input formula with 259840 variables and 1039929 clauses
c finished parsing, read 23608932 bytes from proof file
c detected empty clause; start verification via backward checking
c 23641 of 1039929 clauses in core                            
c 29730 of 609274 lemmas in core using 200050 resolution steps
c 0 RAT lemmas in core; 1773 redundant literals in core lemmas
s VERIFIED
c verification time: 3.362 seconds
